sat
(:SPACER-cex-depth                 3
 :SPACER-inductive-gen             3
 :SPACER-inductive-gen-weaken-fail 3
 :SPACER-max-depth                 3
 :SPACER-max-query-lvl             3
 :SPACER-num-active-lemmas         4
 :SPACER-num-ctp-blocked           1
 :SPACER-num-is_invariant          6
 :SPACER-num-lemmas                6
 :SPACER-num-pobs                  3
 :SPACER-num-queries               5
 :SPACER-num-reach-queries         3
 :SPACER-num-reuse-reach-facts     1
 :added-eqs                        820
 :arith-assert-diseq               172
 :arith-assert-lower               542
 :arith-assert-upper               584
 :arith-bound-prop                 158
 :arith-conflicts                  8
 :arith-eq-adapter                 144
 :arith-fixed-eqs                  168
 :arith-num-rows                   46
 :arith-offset-eqs                 66
 :arith-pivots                     112
 :arith-row-summations             362
 :arith-tableau-max-columns        100
 :arith-tableau-max-rows           46
 :conflicts                        48
 :decisions                        230
 :del-clause                       260
 :final-checks                     26
 :iuc_solver.num_proxies           8
 :max-memory                       30.74
 :memory                           30.42
 :minimized-lits                   4
 :mk-bool-var                      772
 :mk-clause                        964
 :num-allocs                       5172686
 :num-checks                       54
 :pool_solver.checks               27
 :pool_solver.checks.sat           9
 :pool_solver.checks.undef         4
 :propagations                     1776
 :rlimit-count                     12593
 :time                             0.03
 :time.pool_solver.smt.total       0.01
 :time.pool_solver.smt.total.sat   0.00
 :time.pool_solver.smt.total.undef 0.00
 :time.spacer.init_rules           0.00
 :time.spacer.solve                0.02
 :time.spacer.solve.propagate      0.00
 :time.spacer.solve.reach          0.01
 :time.spacer.solve.reach.children 0.00
 :time.spacer.solve.reach.cluster  0.00
 :time.spacer.solve.reach.is-reach 0.00)
(:max-memory   30.74
 :memory       30.42
 :num-allocs   5172686
 :rlimit-count 12593
 :time         0.03
 :total-time   0.05)
